python/teste_novo/abz5.log
Using Python-MIP package version 1.8.1
McCormic linearization
LC: 3 HC: 10 Machine: 0
3 10 859.0000000000001 timeout
McCormic linearization
LC: 3 HC: 9 Machine: 0
3 9 859.0000000000001 timeout
McCormic linearization
LC: 3 HC: 8 Machine: 0
LC: 3 HC: 7 Machine: 0
LC: 3 HC: 6 Machine: 0
LC: 3 HC: 5 Machine: 0
LC: 3 HC: 4 Machine: 0
LC: 3 HC: 8 Machine: 1
3 8 859.0000000000001 timeout
McCormic linearization
LC: 3 HC: 7 Machine: 0
LC: 3 HC: 6 Machine: 0
LC: 3 HC: 5 Machine: 0
LC: 3 HC: 4 Machine: 0
LC: 3 HC: 7 Machine: 1
LC: 3 HC: 6 Machine: 1
LC: 3 HC: 5 Machine: 1
LC: 3 HC: 4 Machine: 1
LC: 3 HC: 7 Machine: 2
LC: 3 HC: 6 Machine: 2
LC: 3 HC: 5 Machine: 2
LC: 3 HC: 4 Machine: 2
LC: 3 HC: 7 Machine: 3
LC: 3 HC: 6 Machine: 3
LC: 3 HC: 5 Machine: 3
LC: 3 HC: 4 Machine: 3
LC: 3 HC: 7 Machine: 4
3 7 859.0000000000001 timeout
McCormic linearization
LC: 3 HC: 6 Machine: 0
LC: 3 HC: 5 Machine: 0
LC: 3 HC: 4 Machine: 0
LC: 3 HC: 6 Machine: 1
LC: 3 HC: 5 Machine: 1
LC: 3 HC: 4 Machine: 1
LC: 3 HC: 6 Machine: 2
LC: 3 HC: 5 Machine: 2
LC: 3 HC: 4 Machine: 2
LC: 3 HC: 6 Machine: 3
LC: 3 HC: 5 Machine: 3
LC: 3 HC: 4 Machine: 3
LC: 3 HC: 6 Machine: 4
LC: 3 HC: 5 Machine: 4
LC: 3 HC: 4 Machine: 4
LC: 3 HC: 6 Machine: 5
LC: 3 HC: 5 Machine: 5
LC: 3 HC: 4 Machine: 5
LC: 3 HC: 6 Machine: 6
LC: 3 HC: 5 Machine: 6
LC: 3 HC: 4 Machine: 6
LC: 3 HC: 6 Machine: 7
LC: 3 HC: 5 Machine: 7
LC: 3 HC: 4 Machine: 7
LC: 3 HC: 6 Machine: 8
LC: 3 HC: 5 Machine: 8
LC: 3 HC: 4 Machine: 8
LC: 3 HC: 6 Machine: 9
LC: 3 HC: 5 Machine: 9
LC: 3 HC: 4 Machine: 9
Added 5219 cuts
LC: 3 HC: 6 Machine: 0
LC: 3 HC: 5 Machine: 0
LC: 3 HC: 4 Machine: 0
LC: 3 HC: 6 Machine: 1
LC: 3 HC: 5 Machine: 1
LC: 3 HC: 4 Machine: 1
LC: 3 HC: 6 Machine: 2
LC: 3 HC: 5 Machine: 2
LC: 3 HC: 4 Machine: 2
LC: 3 HC: 6 Machine: 3
LC: 3 HC: 5 Machine: 3
LC: 3 HC: 4 Machine: 3
LC: 3 HC: 6 Machine: 4
LC: 3 HC: 5 Machine: 4
LC: 3 HC: 4 Machine: 4
LC: 3 HC: 6 Machine: 5
LC: 3 HC: 5 Machine: 5
LC: 3 HC: 4 Machine: 5
LC: 3 HC: 6 Machine: 6
LC: 3 HC: 5 Machine: 6
LC: 3 HC: 4 Machine: 6
LC: 3 HC: 6 Machine: 7
LC: 3 HC: 5 Machine: 7
LC: 3 HC: 4 Machine: 7
LC: 3 HC: 6 Machine: 8
LC: 3 HC: 5 Machine: 8
LC: 3 HC: 4 Machine: 8
LC: 3 HC: 6 Machine: 9
LC: 3 HC: 5 Machine: 9
LC: 3 HC: 4 Machine: 9
Added 24 cuts
LC: 3 HC: 6 Machine: 0
LC: 3 HC: 5 Machine: 0
LC: 3 HC: 4 Machine: 0
LC: 3 HC: 6 Machine: 1
LC: 3 HC: 5 Machine: 1
LC: 3 HC: 4 Machine: 1
LC: 3 HC: 6 Machine: 2
LC: 3 HC: 5 Machine: 2
LC: 3 HC: 4 Machine: 2
LC: 3 HC: 6 Machine: 3
LC: 3 HC: 5 Machine: 3
LC: 3 HC: 4 Machine: 3
LC: 3 HC: 6 Machine: 4
LC: 3 HC: 5 Machine: 4
LC: 3 HC: 4 Machine: 4
LC: 3 HC: 6 Machine: 5
LC: 3 HC: 5 Machine: 5
LC: 3 HC: 4 Machine: 5
LC: 3 HC: 6 Machine: 6
LC: 3 HC: 5 Machine: 6
LC: 3 HC: 4 Machine: 6
LC: 3 HC: 6 Machine: 7
LC: 3 HC: 5 Machine: 7
LC: 3 HC: 4 Machine: 7
LC: 3 HC: 6 Machine: 8
LC: 3 HC: 5 Machine: 8
LC: 3 HC: 4 Machine: 8
LC: 3 HC: 6 Machine: 9
LC: 3 HC: 5 Machine: 9
LC: 3 HC: 4 Machine: 9
Added 1 cuts
(859.0000000000001, 941.5351019430055, 525.5, 5244)
3 6 941.5351019430055 525.5124251842499
