results/2-hrs/compact/abz5.out
Academic license - for non-commercial use only
Set parameter TimeLimit to value 7200

Gurobi Optimizer version 7.5.2 build v7.5.2rc1 (linux64)
Copyright (c) 2017, Gurobi Optimization, Inc.

Read LP format model from file compact/abz5.lp
Reading time = 0.01 seconds
: 1900 rows, 1101 columns, 5600 nonzeros
Optimize a model with 1900 rows, 1101 columns and 5600 nonzeros
Variable types: 0 continuous, 1101 integer (1000 binary)
Coefficient statistics:
  Matrix range     [1e+00, 8e+03]
  Objective range  [1e+00, 1e+00]
  Bounds range     [1e+00, 1e+00]
  RHS range        [5e+01, 8e+03]
Presolve removed 0 rows and 100 columns
Presolve time: 0.01s
Presolved: 1900 rows, 1001 columns, 5600 nonzeros
Variable types: 0 continuous, 1001 integer (900 binary)

Root relaxation: objective 8.880000e+02, 538 iterations, 0.00 seconds

    Nodes    |    Current Node    |     Objective Bounds      |     Work
 Expl Unexpl |  Obj  Depth IntInf | Incumbent    BestBd   Gap | It/Node Time

     0     0  888.00000    0   98          -  888.00000      -     -    0s
     0     0  896.68000    0  239          -  896.68000      -     -    0s
     0     0  896.68000    0  235          -  896.68000      -     -    0s
     0     0  920.95616    0  246          -  920.95616      -     -    0s
     0     0  920.95616    0  236          -  920.95616      -     -    0s
     0     0  923.24366    0  224          -  923.24366      -     -    0s
     0     0  923.24366    0   54          -  923.24366      -     -    0s
     0     0  923.24366    0  133          -  923.24366      -     -    0s
     0     0  923.24366    0  177          -  923.24366      -     -    0s
     0     0  923.24366    0  187          -  923.24366      -     -    0s
     0     0  923.26200    0  191          -  923.26200      -     -    0s
     0     0  923.27588    0  192          -  923.27588      -     -    0s
     0     0  927.15484    0  161          -  927.15484      -     -    0s
     0     0  927.17303    0  174          -  927.17303      -     -    0s
     0     0  927.18065    0  173          -  927.18065      -     -    0s
     0     0  927.39122    0  176          -  927.39122      -     -    0s
     0     0  929.36188    0  179          -  929.36188      -     -    0s
     0     0  929.36220    0  185          -  929.36220      -     -    0s
     0     0  930.70726    0  184          -  930.70726      -     -    0s
     0     0  930.84816    0  186          -  930.84816      -     -    0s
     0     0  931.15681    0  189          -  931.15681      -     -    0s
     0     0  931.27441    0  185          -  931.27441      -     -    0s
     0     0  931.28335    0  185          -  931.28335      -     -    0s
     0     0  932.36519    0  179          -  932.36519      -     -    0s
     0     0  932.38465    0  181          -  932.38465      -     -    0s
     0     0  932.38465    0  181          -  932.38465      -     -    0s
     0     0  932.38465    0  185          -  932.38465      -     -    0s
     0     0  932.38465    0  188          -  932.38465      -     -    0s
     0     0  932.38465    0  188          -  932.38465      -     -    0s
     0     0  933.00000    0  131          -  933.00000      -     -    0s
     0     0  933.00000    0  131          -  933.00000      -     -    0s
     0     2  933.00000    0  131          -  933.00000      -     -    1s
*  206   113              80    1395.0000000  941.00000  32.5%  15.8    1s
H  316   174                    1394.0000000  942.00000  32.4%  15.3    1s
H  415   235                    1390.0000000  942.00000  32.2%  15.4    1s
H  464   271                    1353.0000000  942.00000  30.4%  15.0    1s
H  518   300                    1341.0000000  943.00000  29.7%  15.2    1s
H  550   321                    1334.0000000  943.00000  29.3%  15.1    1s
H  556   326                    1329.0000000  943.00000  29.0%  15.1    1s
   912   568 1024.00000   28  164 1329.00000  975.96439  26.6%  13.0    5s
* 1357   731              79    1304.0000000  978.00000  25.0%  37.9    6s
* 1358   695              80    1300.0000000  978.00000  24.8%  37.9    6s
H 1418   659                    1299.0000000  978.00000  24.7%  36.5    6s
H 1418   627                    1283.0000000  978.00000  23.8%  36.5    6s
H 1498   613                    1282.0000000  978.00000  23.7%  35.2    6s
H 1866   633                    1275.0000000  978.00000  23.3%  30.4    7s
H 3107  1000                    1267.0000000 1021.00000  19.4%  22.6    8s
* 4030  1297              52    1262.0000000 1030.00000  18.4%  19.4    8s
* 4035  1295              48    1258.0000000 1030.00000  18.1%  19.4    8s
* 4240  1344              50    1253.0000000 1030.00000  17.8%  19.0    8s
* 5293  1615              44    1249.0000000 1042.00000  16.6%  17.2    8s
* 7667  2150              56    1248.0000000 1049.00000  15.9%  14.7    9s
  9412  2526 infeasible   39      1248.00000 1054.00000  15.5%  13.6   10s
H13203  2909                    1245.0000000 1060.00000  14.9%  13.3   13s
H14202  2662                    1238.0000000 1060.00000  14.4%  13.0   13s
 16895  2272 1168.00000   50   24 1238.00000 1060.00000  14.4%  12.5   15s
 20807  2567 1122.00000   50  224 1238.00000 1062.00000  14.2%  11.6   21s
 20845  2592 1105.00000   57  174 1238.00000 1062.00000  14.2%  11.6   25s
 20896  2626 1091.00000   56  165 1238.00000 1062.00000  14.2%  11.6   30s
 20943  2658 1150.00000   52  178 1238.00000 1062.00000  14.2%  11.6   35s
 20993  2691 1155.00000   57  182 1238.00000 1062.00000  14.2%  11.5   40s
 21563  2713 1062.00000   61   64 1238.00000 1062.00000  14.2%  13.9   45s
 29156  1621 1074.00000   69   43 1238.00000 1074.00000  13.2%  13.9   50s
*36264  1979              74    1236.0000000 1109.00000  10.3%  13.2   52s
 37535  1747 infeasible   59      1236.00000 1123.00000  9.14%  13.2   55s
*39787  1101              80    1234.0000000 1144.00000  7.29%  13.1   57s

Cutting planes:
  Gomory: 3
  Cover: 2
  Implied bound: 5
  Clique: 8
  MIR: 13
  Flow cover: 31
  Zero half: 2

Explored 41115 nodes (539016 simplex iterations) in 58.58 seconds
Thread count was 4 (of 4 available processors)

Solution count 10: 1234 1236 1238 ... 1267

Optimal solution found (tolerance 1.00e-04)
Best objective 1.234000000000e+03, best bound 1.234000000000e+03, gap 0.0000%

Wrote result file 'compact/abz5.sol'

